1 2
1 6
1 26
1 21
3 4
3 23
3 103
4 24
4 104
5 6
5 10
5 30
5 105
6 106
7 8
8 9
8 33
10 35
10 14
10 110
11 111
12 13
12 112
15 16
15 20
15 40
15 19
16 21
17 18
17 22
17 42
17 117
18 23
18 43
18 118
20 45
20 24
20 120
21 121
22 23
22 47
23 123
24 49
24 124
25 29
26 27
26 51
27 28
27 52
27 47
28 29
28 33
28 53
29 34
29 49
30 35
30 55
30 34
31 36
33 38
34 39
34 59
35 40
35 60
36 61
37 42
38 39
38 43
38 63
40 45
40 65
42 43
42 67
43 48
44 49
45 70
45 49
47 48
48 73
50 51
50 55
50 70
51 52
51 76
52 53
52 57
53 54
53 73
54 59
54 79
54 74
55 60
55 80
56 81
57 62
57 82
58 63
59 64
60 85
61 62
61 66
61 86
62 63
62 67
65 66
65 70
65 69
66 67
66 91
67 72
68 93
69 94
75 79
76 81
76 96
79 104
79 99
80 85
80 105
80 84
81 82
82 83
82 107
83 84
83 108
84 109
85 86
85 90
86 91
87 92
90 91
91 96
92 93
92 97
93 94
93 118
94 99
94 119
95 96
96 97
98 99
100 104
101 106
102 103
102 107
103 108
104 124
105 106
105 109
106 111
107 108
107 112
108 113
110 111
111 112
112 117
117 118
118 119
119 124
120 121
120 124
