0 1
0 5
0 25
0 4
1 26
1 21
3 28
3 23
3 103
4 9
4 29
4 104
5 6
5 10
6 7
6 11
6 31
7 8
7 12
7 107
8 33
9 14
9 34
9 109
10 11
10 14
10 110
11 12
11 16
12 37
12 112
13 18
14 19
14 114
15 16
15 40
16 21
16 41
17 18
17 22
17 42
17 117
18 43
18 118
21 22
21 121
22 47
23 24
23 123
24 49
24 124
25 50
25 45
27 28
27 32
27 47
28 53
29 54
29 49
30 55
31 32
31 56
32 33
32 37
33 38
33 58
35 40
35 60
37 38
38 63
39 44
40 45
40 44
41 42
42 43
42 47
43 48
43 68
44 49
44 69
45 49
50 51
50 55
50 75
51 56
51 71
54 59
54 79
54 74
55 60
56 57
56 61
57 58
57 62
58 63
58 83
60 85
60 64
61 62
61 86
62 63
62 87
63 64
64 69
65 69
66 67
67 68
68 69
68 73
71 96
75 76
75 79
76 77
76 81
76 101
77 82
77 102
77 97
79 84
79 104
81 106
82 87
82 107
84 109
85 110
87 88
87 112
88 89
88 93
90 115
92 97
93 94
93 98
94 99
96 97
96 121
97 98
98 123
100 120
101 102
101 106
101 121
102 103
103 104
103 123
104 109
105 106
107 112
108 109
110 114
112 117
113 114
115 116
115 120
115 119
116 117
117 118
118 123
120 121
