0 25
0 4
0 20
2 3
2 27
3 4
3 8
3 23
4 29
4 104
5 6
5 9
6 106
7 12
9 14
9 34
11 36
12 13
12 17
12 112
13 14
13 38
14 114
15 16
15 20
15 40
17 117
18 43
20 21
20 24
21 22
23 123
25 26
25 50
25 29
26 27
26 31
27 28
27 52
28 53
29 34
32 33
32 37
32 57
33 34
33 38
33 58
34 39
35 40
35 60
35 39
36 37
36 41
36 61
37 38
37 62
38 43
39 44
39 64
40 41
40 65
41 42
41 66
42 43
42 47
42 67
46 47
47 72
49 74
50 51
50 75
50 70
51 52
51 56
51 71
52 57
52 72
53 54
53 58
53 73
54 59
54 74
55 60
55 80
57 62
57 82
58 83
60 61
60 64
61 62
61 86
62 63
64 69
64 89
65 70
65 90
65 69
67 72
67 92
69 94
70 71
71 96
72 73
73 74
74 99
75 76
75 80
75 100
76 96
77 102
78 83
78 103
80 81
80 84
81 82
81 86
81 106
82 83
83 108
86 87
86 111
88 89
88 93
89 114
90 115
91 92
92 93
92 97
93 98
95 99
96 97
97 98
97 122
98 99
98 123
99 124
100 101
100 105
100 104
101 102
101 106
102 103
102 122
103 123
104 109
104 124
106 107
109 114
110 111
110 115
110 114
111 112
111 116
115 116
115 119
119 124
123 124
