0 5
0 25
0 4
0 100
1 6
2 22
2 102
3 103
4 29
4 24
5 6
5 10
5 30
6 7
6 11
10 11
10 14
10 110
11 12
11 16
12 13
12 17
12 37
14 19
14 39
15 115
16 17
16 41
17 117
18 19
18 23
18 43
18 118
19 44
19 119
20 21
20 45
20 24
20 120
21 22
21 46
21 121
22 23
22 47
23 24
23 123
24 124
25 26
25 50
25 45
26 51
27 52
29 34
30 34
31 56
33 58
34 39
34 59
35 40
36 61
37 38
37 62
38 39
38 43
39 64
40 41
40 45
40 44
42 43
43 48
44 49
44 69
47 48
47 72
48 73
50 51
50 55
50 75
51 56
51 71
52 53
52 72
53 58
53 78
55 80
55 59
56 57
56 61
58 63
58 83
59 64
60 85
61 62
61 86
62 67
62 87
64 69
64 89
67 68
67 72
69 74
69 94
71 96
72 73
73 74
73 98
75 76
75 80
75 100
77 78
77 82
77 102
77 97
78 83
78 103
80 81
80 105
81 82
81 86
81 106
82 107
83 88
85 86
85 110
85 89
86 91
88 93
88 113
89 94
89 114
90 91
91 96
91 116
93 94
93 98
94 119
95 96
96 97
97 98
97 122
100 104
101 102
101 106
101 121
102 107
103 104
103 108
104 109
104 124
106 107
107 108
108 109
108 113
110 115
112 113
113 118
115 116
115 120
116 117
117 118
117 122
118 119
119 124
120 121
120 124
121 122
