0 1
0 5
0 25
0 20
1 21
1 101
3 28
3 23
3 103
4 24
5 6
5 10
5 105
6 7
6 31
6 106
8 13
10 15
10 14
10 110
12 13
12 17
12 37
12 112
13 14
13 113
14 19
15 20
15 19
17 18
17 117
18 23
18 43
18 118
19 44
20 45
20 24
23 24
23 48
24 49
25 26
25 50
25 29
26 27
26 51
26 46
27 28
27 32
28 33
28 48
31 32
31 36
32 33
33 34
33 58
34 59
36 37
36 41
37 38
37 42
40 45
41 42
41 46
41 66
42 43
42 47
43 44
44 49
45 46
45 70
46 47
47 48
47 72
48 73
49 74
50 51
50 55
50 75
51 56
52 77
53 54
54 59
54 79
54 74
55 56
55 80
58 59
58 63
59 84
60 65
60 85
60 64
62 87
63 64
63 88
64 69
65 66
65 70
66 67
66 91
67 68
67 72
70 95
71 96
72 73
73 74
73 98
75 76
75 79
75 95
76 77
76 81
76 101
77 82
77 102
79 104
80 105
80 84
82 87
83 108
84 89
84 109
86 87
86 91
87 88
88 89
88 93
89 94
90 115
91 96
92 93
93 98
94 119
95 96
95 120
96 121
98 123
100 101
101 121
102 103
102 107
102 122
103 104
103 123
105 106
105 110
106 107
106 111
107 108
107 112
110 115
112 117
114 119
115 120
115 119
116 121
117 118
117 122
118 119
118 123
121 122
123 124
