0 25
0 4
0 20
1 26
2 3
3 28
3 23
3 103
5 10
7 32
7 107
9 34
10 35
12 112
13 14
13 18
13 38
13 113
14 39
14 114
15 16
15 40
15 19
15 115
16 21
16 41
17 22
19 24
20 21
20 24
20 120
21 22
21 46
22 23
23 24
23 123
24 49
25 30
25 29
25 45
26 27
26 31
26 46
27 28
27 52
27 47
28 29
28 33
29 54
30 31
30 35
30 34
31 32
31 36
32 33
33 58
34 39
34 59
35 36
35 39
36 61
39 44
40 45
40 65
42 47
43 44
44 49
44 69
45 46
45 49
46 47
47 72
49 74
50 54
51 76
52 57
54 59
54 79
57 58
57 62
57 82
59 64
59 84
60 85
61 62
61 66
61 86
62 67
62 87
63 88
65 69
66 67
66 71
67 68
67 72
68 69
69 74
70 74
71 72
71 96
72 97
74 99
75 76
75 80
75 79
75 95
76 101
76 96
77 102
78 103
78 98
79 84
79 104
80 81
80 105
81 82
81 106
82 87
82 107
84 89
85 90
85 110
85 89
86 87
86 91
87 92
88 113
89 94
89 114
90 91
90 95
90 94
91 92
91 96
92 93
95 120
95 99
96 97
97 98
98 123
99 124
100 105
101 102
101 106
102 107
103 104
103 123
104 109
104 124
105 106
105 110
106 111
107 108
110 111
110 114
111 112
112 117
113 114
115 120
115 119
116 117
120 124
123 124
