0 1
0 5
0 25
0 4
1 2
1 6
1 26
2 7
2 102
3 23
4 9
4 24
4 104
5 30
6 7
6 31
6 106
7 8
7 12
8 9
8 13
8 108
9 34
9 109
10 35
11 12
11 16
12 17
12 112
13 14
13 18
14 114
16 41
16 116
17 18
17 42
17 117
18 23
19 24
19 44
19 119
20 21
20 24
20 120
22 47
23 48
23 123
25 26
26 31
26 51
27 52
28 29
28 33
28 48
30 31
30 55
30 34
32 57
35 60
35 39
37 42
37 62
40 65
41 42
41 46
41 66
42 47
44 49
47 48
47 72
48 73
50 54
52 57
52 77
53 73
54 59
55 80
55 59
57 62
57 82
58 59
58 83
59 84
60 61
60 65
60 64
61 62
61 66
61 86
62 63
65 70
66 67
66 71
67 68
67 72
68 73
68 93
70 71
71 96
72 73
72 97
75 76
75 80
75 100
75 95
76 81
76 96
79 104
80 81
80 84
81 82
81 86
82 83
82 87
83 88
83 108
84 89
85 90
86 111
87 112
88 89
88 93
88 113
89 94
89 114
90 95
90 115
90 94
93 94
94 99
95 120
95 99
96 97
96 121
97 98
98 99
98 123
100 105
100 120
101 102
104 109
104 124
106 111
108 109
108 113
110 115
111 112
111 116
112 117
113 114
113 118
114 119
116 117
116 121
117 118
118 119
118 123
120 121
122 123
