0 4
2 3
2 7
2 102
3 23
3 103
4 29
4 104
5 6
5 10
5 30
5 9
6 7
6 11
6 106
7 8
7 107
8 9
8 13
8 33
9 14
9 109
10 110
11 16
11 36
11 111
12 13
13 14
13 18
14 39
14 114
15 16
15 20
15 40
15 115
16 21
17 18
17 22
17 42
17 117
18 23
18 118
19 44
19 119
20 45
20 24
20 120
21 121
23 24
24 49
24 124
25 30
26 27
26 31
26 51
26 46
27 32
27 52
27 47
28 29
28 33
28 53
28 48
29 54
30 31
30 55
31 36
33 58
35 60
36 37
37 42
37 62
39 44
40 41
40 45
40 44
42 47
42 67
44 69
45 70
47 72
51 52
51 56
51 71
52 53
52 77
53 73
55 56
55 60
55 59
56 61
56 81
58 59
58 63
58 83
62 63
62 67
63 68
63 88
66 67
66 71
66 91
67 72
69 74
70 95
70 74
71 72
71 96
72 73
73 74
73 98
74 99
75 76
75 80
75 100
75 95
80 81
80 84
81 82
81 86
82 87
82 107
86 87
86 91
86 111
87 88
87 92
88 89
89 94
89 114
90 94
91 96
93 94
94 99
95 96
97 98
98 99
99 124
100 104
100 120
101 121
102 103
102 107
102 122
103 104
104 124
105 106
105 110
105 109
106 107
106 111
108 109
109 114
110 115
110 114
111 112
115 120
117 118
117 122
118 119
118 123
120 121
121 122
