0 5
0 25
0 20
0 100
1 26
1 21
1 101
2 102
4 24
5 9
5 105
6 31
8 9
8 108
9 109
11 16
11 111
12 13
13 14
13 18
13 38
14 19
14 39
14 114
15 40
16 17
16 21
16 41
17 117
18 23
18 43
18 118
19 24
22 47
23 24
23 48
23 123
24 124
25 26
25 50
25 45
26 51
26 46
27 32
27 52
27 47
28 29
28 33
28 53
28 48
29 34
30 55
31 32
31 56
33 34
33 38
33 58
34 39
34 59
35 39
38 39
38 43
40 41
40 65
40 44
41 42
43 68
45 70
48 49
48 73
50 51
50 55
50 54
51 56
52 77
52 72
53 54
53 78
54 59
54 79
55 56
55 59
56 61
58 59
58 83
60 61
61 66
61 86
62 67
65 70
67 68
67 72
68 69
68 73
70 74
72 73
72 97
73 74
75 95
77 82
77 102
77 97
78 79
78 83
78 98
79 104
80 81
80 85
80 105
80 84
82 87
82 107
83 84
84 89
84 109
85 86
85 110
85 89
86 91
86 111
88 89
88 93
89 94
90 91
90 95
90 115
90 94
91 92
91 96
92 93
92 117
93 94
93 118
94 119
95 96
95 99
96 97
97 98
98 99
98 123
101 102
102 107
103 108
103 123
105 110
105 109
106 111
107 108
109 114
110 114
111 112
115 116
115 120
115 119
117 118
118 119
119 124
120 124
123 124
