0 1
0 4
0 20
0 100
1 6
1 26
1 101
2 3
3 4
3 8
3 28
4 29
4 24
5 6
7 12
8 9
9 14
9 34
9 109
10 35
10 14
10 110
11 36
12 37
12 112
13 18
14 19
14 39
15 40
16 116
18 19
19 44
19 119
20 21
20 24
20 120
21 46
21 121
22 47
23 123
24 49
24 124
25 26
25 50
25 29
26 27
26 51
27 32
27 52
28 29
28 33
28 48
29 34
31 36
32 57
34 59
35 36
35 40
35 39
36 41
37 38
37 62
38 39
38 43
38 63
39 64
40 41
40 45
47 48
48 49
48 73
49 74
50 51
50 75
50 70
51 56
51 76
52 53
52 77
52 72
56 57
56 61
56 81
57 62
57 82
59 84
60 65
60 64
61 62
61 66
61 86
62 63
63 64
63 68
64 89
65 70
65 90
65 69
67 72
67 92
69 74
72 73
72 97
73 74
73 98
74 99
75 80
76 81
76 101
76 96
77 78
77 82
77 97
78 103
79 84
80 81
80 84
81 86
82 83
82 107
84 89
85 86
85 110
85 89
86 91
88 89
88 93
90 115
92 93
92 97
92 117
93 98
94 119
96 97
98 99
99 124
100 104
100 120
101 102
101 121
102 103
102 107
102 122
103 104
103 123
104 109
104 124
106 107
107 112
110 111
110 115
112 117
115 116
115 119
116 117
116 121
117 118
120 121
122 123
123 124
