0 5
0 4
0 20
0 100
1 2
1 6
1 101
2 3
2 27
2 102
3 8
3 23
4 29
4 24
4 104
5 6
5 30
5 9
6 11
6 106
7 32
8 13
8 33
11 12
11 16
11 36
12 13
12 37
12 112
13 14
14 19
14 39
15 20
16 21
16 116
17 42
19 24
19 44
19 119
20 120
23 123
24 49
24 124
25 45
27 28
27 52
28 29
28 53
28 48
29 54
30 35
30 55
30 34
31 32
32 33
32 37
33 34
34 39
34 59
36 41
36 61
37 42
37 62
38 63
39 44
39 64
40 41
40 45
41 42
41 46
42 67
43 44
43 68
44 69
45 46
45 49
49 74
50 55
50 75
50 54
50 70
51 56
52 53
52 77
53 73
54 59
54 74
55 56
55 80
56 61
56 81
59 64
60 61
60 85
60 64
61 86
62 63
62 67
63 64
63 68
67 68
67 92
68 93
72 73
73 74
73 98
75 76
75 80
76 77
76 81
76 96
77 82
77 102
79 84
79 104
80 81
80 105
81 106
83 108
85 90
85 110
88 89
88 93
88 113
89 94
89 114
90 95
90 115
90 94
91 116
92 117
93 94
93 98
96 121
97 98
98 123
100 101
100 105
101 102
101 121
102 103
103 104
103 108
103 123
104 109
105 106
105 109
107 108
108 109
110 111
110 115
111 112
111 116
112 117
115 120
117 118
117 122
118 123
120 121
120 124
121 122
