0 5 A 20
0 4 A 20
0 20 A 20
1 2 A 20
1 26 A 20
1 21 A 20
2 3 A 20
2 27 A 20
2 22 A 20
3 4 A 20
3 8 A 20
3 28 A 20
4 9 A 20
4 29 A 20
5 30 A 20
5 9 A 20
5 105 A 20
7 8 A 20
7 12 A 20
7 32 A 20
7 107 A 20
8 9 A 20
8 108 A 20
9 34 A 20
10 15 A 20
10 35 A 20
10 14 A 20
11 12 A 20
11 16 A 20
11 36 A 20
12 37 A 20
12 112 A 20
13 14 A 20
13 18 A 20
13 113 A 20
14 19 A 20
15 20 A 20
15 40 A 20
15 19 A 20
16 21 A 20
16 116 A 20
17 42 A 20
18 23 A 20
18 118 A 20
19 24 A 20
19 119 A 20
20 21 A 20
20 24 A 20
21 46 A 20
22 23 A 20
22 47 A 20
23 24 A 20
23 48 A 20
24 124 A 20
25 50 A 20
25 29 A 20
25 45 A 20
26 27 A 20
26 31 A 20
26 46 A 20
27 32 A 20
27 52 A 20
28 29 A 20
28 33 A 20
28 48 A 20
29 54 A 20
30 31 A 20
30 35 A 20
31 36 A 20
31 56 A 20
32 37 A 20
32 57 A 20
33 34 A 20
33 58 A 20
34 39 A 20
35 40 A 20
36 61 A 20
37 38 A 20
37 62 A 20
38 39 A 20
38 43 A 20
38 63 A 20
39 44 A 20
39 64 A 20
40 45 A 20
40 44 A 20
42 43 A 20
42 67 A 20
43 48 A 20
44 49 A 20
45 70 A 20
46 71 A 20
48 49 A 20
49 74 A 20
52 53 A 20
52 57 A 20
52 77 A 20
53 58 A 20
53 78 A 20
53 73 A 20
54 59 A 20
54 79 A 20
54 74 A 20
55 56 A 20
55 60 A 20
55 80 A 20
55 59 A 20
56 61 A 20
56 81 A 20
57 58 A 20
59 64 A 20
59 84 A 20
60 85 A 20
60 64 A 20
61 66 A 20
61 86 A 20
62 63 A 20
62 67 A 20
62 87 A 20
63 68 A 20
63 88 A 20
64 69 A 20
66 71 A 20
66 91 A 20
67 68 A 20
67 92 A 20
68 69 A 20
68 73 A 20
69 94 A 20
70 71 A 20
70 95 A 20
71 72 A 20
73 74 A 20
73 98 A 20
74 99 A 20
75 76 A 20
76 101 A 20
76 96 A 20
77 78 A 20
77 102 A 20
77 97 A 20
78 83 A 20
78 103 A 20
79 104 A 20
79 99 A 20
80 81 A 20
80 105 A 20
81 82 A 20
81 106 A 20
82 83 A 20
82 87 A 20
82 107 A 20
83 88 A 20
84 89 A 20
84 109 A 20
85 90 A 20
85 110 A 20
85 89 A 20
86 87 A 20
86 111 A 20
87 92 A 20
88 89 A 20
88 93 A 20
89 114 A 20
90 91 A 20
90 94 A 20
91 96 A 20
91 116 A 20
92 117 A 20
93 94 A 20
93 98 A 20
93 118 A 20
94 119 A 20
95 96 A 20
95 120 A 20
95 99 A 20
96 121 A 20
97 98 A 20
97 122 A 20
98 123 A 20
100 101 A 20
100 104 A 20
100 120 A 20
101 106 A 20
101 121 A 20
102 103 A 20
102 107 A 20
103 104 A 20
103 108 A 20
104 124 A 20
105 110 A 20
105 109 A 20
106 111 A 20
107 112 A 20
108 113 A 20
109 114 A 20
110 111 A 20
110 115 A 20
111 112 A 20
112 117 A 20
113 114 A 20
113 118 A 20
114 119 A 20
116 117 A 20
116 121 A 20
117 122 A 20
118 123 A 20
120 121 A 20
122 123 A 20
123 124 A 20
