0 1
0 25
0 4
0 20
1 6
1 21
1 101
2 27
3 4
3 8
3 103
4 9
4 104
5 105
6 7
6 11
6 31
7 8
7 32
7 107
8 9
8 108
9 14
9 109
10 11
10 15
10 14
12 112
13 18
14 114
15 16
15 20
15 115
16 17
17 117
18 19
18 23
18 118
20 21
20 120
21 46
21 121
23 24
25 30
25 29
26 31
27 28
27 52
28 29
28 33
28 53
29 34
29 49
30 31
30 34
31 32
32 33
32 37
33 34
33 58
34 59
35 60
37 38
37 42
38 43
38 63
40 41
40 45
40 65
41 42
41 46
41 66
42 43
42 67
43 68
44 49
46 71
49 74
51 56
52 53
52 57
52 72
53 78
53 73
54 79
55 56
56 61
56 81
57 82
59 64
60 61
60 64
61 66
61 86
62 87
63 64
63 68
64 89
65 70
65 90
65 69
66 71
66 91
67 68
67 72
67 92
68 73
69 74
69 94
70 95
70 74
71 72
71 96
72 97
73 98
74 99
75 80
75 100
75 95
77 97
78 83
78 103
78 98
79 99
80 81
80 105
81 86
82 83
82 87
82 107
86 87
86 91
87 112
89 94
89 114
90 91
90 115
90 94
91 116
93 98
94 99
98 99
100 105
100 104
100 120
101 121
102 103
103 104
104 124
105 109
106 107
107 112
109 114
110 114
111 116
112 117
115 116
115 120
116 121
117 118
117 122
120 124
